out/denorm/lcm/z3/lcm_denorm_inv1_len5_1.out
unsat
((set-logic NIA)
(declare-fun u!5 () Int)
(declare-fun x!3 () Int)
(declare-fun y!2 () Int)
(declare-fun v!4 () Int)
(declare-fun k!10 () Int)
(declare-fun k!00 () Int)
(proof
(let ((?x1114 (+ k!00 k!10 (* (- 1) (* v!4 y!2)) (* (- 1) (* x!3 u!5)))))
 (let (($x1746 (>= ?x1114 0)))
 (let (($x1724 (= ?x1114 0)))
 (let ((?x1900 (* v!4 v!4 y!2 y!2 y!2 y!2 y!2 y!2 u!5 u!5 u!5 u!5)))
 (let ((?x1894 (* y!2 y!2 y!2 y!2 y!2 y!2 u!5 u!5 u!5 u!5 u!5 u!5)))
 (let ((?x1893 (* v!4 y!2 y!2 y!2 y!2 y!2 y!2 u!5 u!5 u!5 u!5 u!5)))
 (let ((?x1887 (* v!4 v!4 v!4 y!2 y!2 y!2 y!2 y!2 x!3 u!5 u!5 u!5)))
 (let ((?x1882 (* v!4 v!4 y!2 y!2 y!2 y!2 y!2 x!3 u!5 u!5 u!5 u!5)))
 (let ((?x1880 (* v!4 y!2 y!2 y!2 y!2 y!2 x!3 u!5 u!5 u!5 u!5 u!5)))
 (let ((?x1875 (* y!2 y!2 y!2 y!2 y!2 x!3 u!5 u!5 u!5 u!5 u!5 u!5)))
 (let ((?x1873 (* v!4 v!4 v!4 y!2 y!2 y!2 y!2 x!3 x!3 u!5 u!5 u!5)))
 (let ((?x1861 (* y!2 y!2 y!2 x!3 x!3 x!3 u!5 u!5 u!5 u!5 u!5 u!5)))
 (let ((?x1858 (* v!4 y!2 y!2 y!2 x!3 x!3 x!3 u!5 u!5 u!5 u!5 u!5)))
 (let ((?x1857 (* v!4 v!4 y!2 y!2 y!2 x!3 x!3 x!3 u!5 u!5 u!5 u!5)))
 (let ((?x1856 (* y!2 y!2 y!2 y!2 x!3 x!3 u!5 u!5 u!5 u!5 u!5 u!5)))
 (let ((?x1854 (* v!4 y!2 y!2 y!2 y!2 x!3 x!3 u!5 u!5 u!5 u!5 u!5)))
 (let ((?x1750 (* v!4 v!4 v!4 y!2 u!5 u!5)))
 (let ((?x1744 (* v!4 v!4 v!4 y!2 y!2 y!2 x!3 x!3 x!3 u!5 u!5 u!5)))
 (let ((?x1740 (* v!4 u!5 u!5)))
 (let ((?x1737 (* v!4 v!4 v!4 y!2 y!2 x!3 x!3 u!5 u!5)))
 (let ((?x1732 (* v!4 v!4 v!4 y!2 x!3 u!5)))
 (let ((?x1677 (* u!5 u!5 u!5)))
 (let ((?x1656 (* v!4 v!4 v!4 y!2 y!2 y!2 y!2 y!2 y!2 u!5 u!5 u!5)))
 (let ((?x1652 (* v!4 v!4 y!2 y!2 y!2 y!2 x!3 x!3 u!5 u!5 u!5 u!5)))
 (let ((?x1922 (+ (* (- 1) (* y!2 y!2 u!5 u!5 u!5 u!5)) (* 3 (* v!4 v!4 y!2 y!2 x!3 x!3 u!5 u!5 u!5)) (* (- 9) ?x1652) (* (- 1) ?x1656) ?x1677 (* y!2 x!3 u!5 u!5 u!5 u!5) ?x1732 ?x1737 ?x1740 ?x1744 ?x1750 (* 3 (* v!4 y!2 x!3 u!5 u!5 u!5)) (* 3 (* v!4 v!4 y!2 x!3 u!5 u!5)) (* (- 3) (* v!4 y!2 y!2 u!5 u!5 u!5)) (* (- 3) (* v!4 v!4 y!2 y!2 u!5 u!5)) (* (- 1) (* v!4 v!4 v!4 y!2 y!2 u!5)) (* y!2 y!2 x!3 x!3 u!5 u!5 u!5 u!5 u!5) (* 3 (* v!4 y!2 y!2 x!3 x!3 u!5 u!5 u!5 u!5)) (* (- 2) (* y!2 y!2 y!2 x!3 u!5 u!5 u!5 u!5 u!5)) (* (- 6) (* v!4 y!2 y!2 y!2 x!3 u!5 u!5 u!5 u!5)) (* (- 6) (* v!4 v!4 y!2 y!2 y!2 x!3 u!5 u!5 u!5)) (* (- 2) (* v!4 v!4 v!4 y!2 y!2 y!2 x!3 u!5 u!5)) (* y!2 y!2 y!2 y!2 u!5 u!5 u!5 u!5 u!5) (* 3 (* v!4 y!2 y!2 y!2 y!2 u!5 u!5 u!5 u!5)) (* 3 (* v!4 v!4 y!2 y!2 y!2 y!2 u!5 u!5 u!5)) (* v!4 v!4 v!4 y!2 y!2 y!2 y!2 u!5 u!5) (* (- 9) ?x1854) (* (- 3) ?x1856) (* 3 ?x1857) (* 3 ?x1858) ?x1861 (* (- 3) ?x1873) (* 3 ?x1875) (* 9 ?x1880) (* 9 ?x1882) (* 3 ?x1887) (* (- 3) ?x1893) (* (- 1) ?x1894) (* (- 3) ?x1900) (* y!2 u!5 u!5 u!5 u!5 u!5) (* 3 (* v!4 y!2 u!5 u!5 u!5 u!5)) (* 3 (* v!4 v!4 y!2 u!5 u!5 u!5)))))
 (let ((?x1709 (* x!3 u!5)))
 (let ((?x634 (* v!4 y!2)))
 (let ((?x286 (* (- 1) k!10)))
 (let ((?x851 (* (- 1) k!00)))
 (let ((?x1713 (+ ?x851 ?x286 ?x634 ?x1709)))
 (let ((?x1928 (* ?x1713 ?x1922)))
 (let (($x1741 (= ?x1928 0)))
 (let (($x1929 (not $x1741)))
 (let ((?x2025 (* v!4 v!4 v!4 v!4 v!4 y!2)))
 (let ((?x1819 (* v!4 v!4 v!4 v!4 v!4 v!4 y!2 y!2 x!3 x!3 x!3 x!3)))
 (let ((?x1815 (* v!4 v!4 v!4 v!4 v!4 y!2 y!2 x!3 x!3 x!3 x!3 u!5)))
 (let ((?x1810 (* v!4 v!4 v!4 v!4 y!2 y!2 x!3 x!3 x!3 x!3 u!5 u!5)))
 (let ((?x1808 (* v!4 v!4 v!4 y!2 y!2 x!3 x!3 x!3 x!3 u!5 u!5 u!5)))
 (let ((?x1803 (* v!4 v!4 v!4 v!4 v!4 v!4 y!2 x!3 x!3 x!3 x!3 x!3)))
 (let ((?x1801 (* v!4 v!4 v!4 v!4 v!4 y!2 x!3 x!3 x!3 x!3 x!3 u!5)))
 (let ((?x1792 (* v!4 v!4 v!4 y!2 x!3 x!3 x!3 x!3 x!3 u!5 u!5 u!5)))
 (let ((?x1790 (* v!4 v!4 v!4 v!4 x!3 x!3 x!3 x!3 x!3 x!3 u!5 u!5)))
 (let ((?x1788 (* v!4 v!4 v!4 x!3 x!3 x!3 x!3 x!3 x!3 u!5 u!5 u!5)))
 (let ((?x1786 (* v!4 v!4 v!4 v!4 v!4 x!3 x!3 x!3 x!3 x!3 x!3 u!5)))
 (let ((?x1777 (* v!4 v!4 v!4 v!4 v!4 v!4 y!2 y!2 y!2 x!3 x!3 x!3)))
 (let ((?x1772 (* v!4 v!4 v!4 v!4 y!2 y!2 y!2 x!3 x!3 x!3 u!5 u!5)))
 (let ((?x1198 (* v!4 v!4 v!4 v!4 y!2 x!3 x!3 x!3 x!3 x!3 u!5 u!5)))
 (let ((?x1195 (* v!4 v!4 v!4 v!4 v!4 y!2 y!2 y!2 x!3 x!3 x!3 u!5)))
 (let ((?x797 (* (- 1) (* v!4 v!4 v!4 v!4 v!4 x!3))))
 (let ((?x660 (* v!4 v!4 v!4)))
 (let ((?x494 (* (- 1) (* v!4 v!4 v!4 v!4 x!3 x!3))))
 (let ((?x611 (* v!4 v!4 v!4 v!4 v!4 v!4 x!3 x!3 x!3 x!3 x!3 x!3)))
 (let ((?x498 (* (- 1) ?x611)))
 (let ((?x496 (* v!4 v!4 v!4 v!4 v!4 x!3 x!3 x!3 x!3)))
 (let ((?x1616 (+ ?x496 ?x498 ?x494 ?x660 ?x797 (* (- 1) (* v!4 v!4 v!4 x!3 x!3 u!5)) (* v!4 v!4 v!4 v!4 v!4 y!2 y!2 x!3 x!3) (* 3 ?x1195) (* 9 ?x1198) ?x1732 (* v!4 v!4 v!4 v!4 y!2 x!3) ?x1737 ?x1740 ?x1744 ?x1750 (* 2 (* v!4 v!4 v!4 v!4 y!2 y!2 x!3 x!3 u!5)) (* v!4 v!4 v!4 x!3 x!3 x!3 x!3 u!5 u!5) (* 2 (* v!4 v!4 v!4 v!4 x!3 x!3 x!3 x!3 u!5)) (* (- 2) (* v!4 v!4 v!4 y!2 x!3 x!3 x!3 u!5 u!5)) (* (- 4) (* v!4 v!4 v!4 v!4 y!2 x!3 x!3 x!3 u!5)) (* 2 (* v!4 v!4 u!5)) (* (- 2) (* v!4 v!4 v!4 v!4 v!4 y!2 x!3 x!3 x!3)) (* 3 ?x1772) ?x1777 (* (- 3) ?x1786) (* (- 1) ?x1788) (* (- 3) ?x1790) (* 3 ?x1792) (* 9 ?x1801) (* 3 ?x1803) (* (- 3) ?x1808) (* (- 9) ?x1810) (* (- 9) ?x1815) (* (- 3) ?x1819) (* 2 (* v!4 v!4 v!4 v!4 y!2 u!5)) (* (- 1) (* v!4 v!4 v!4 x!3 u!5 u!5)) (* (- 2) (* v!4 v!4 v!4 v!4 x!3 u!5)) ?x2025)))
 (let ((?x1617 (* ?x1713 ?x1616)))
 (let (($x1729 (= ?x1617 0)))
 (let (($x1736 (or (not $x1729) $x1929)))
 (let (($x1948 (and $x1724 $x1736)))
 (let ((?x637 (* u!5 u!5 v!4 v!4 v!4 y!2)))
 (let ((?x1697 (* u!5 u!5 u!5 v!4 v!4 v!4 y!2 y!2 y!2 y!2 y!2 y!2)))
 (let ((?x1693 (* u!5 u!5 u!5 u!5 v!4 v!4 y!2 y!2 y!2 y!2 y!2 y!2)))
 (let ((?x1690 (* u!5 u!5 u!5 u!5 u!5 v!4 y!2 y!2 y!2 y!2 y!2 y!2)))
 (let ((?x1687 (* u!5 u!5 u!5 u!5 u!5 u!5 y!2 y!2 y!2 y!2 y!2 y!2)))
 (let ((?x1691 (* u!5 u!5 u!5 v!4 v!4 v!4 x!3 y!2 y!2 y!2 y!2 y!2)))
 (let ((?x1688 (* u!5 u!5 u!5 u!5 v!4 v!4 x!3 y!2 y!2 y!2 y!2 y!2)))
 (let ((?x1666 (* u!5 u!5 u!5 u!5 u!5 v!4 x!3 y!2 y!2 y!2 y!2 y!2)))
 (let ((?x1668 (* u!5 u!5 u!5 u!5 u!5 u!5 x!3 y!2 y!2 y!2 y!2 y!2)))
 (let ((?x1669 (* u!5 u!5 u!5 v!4 v!4 v!4 x!3 x!3 y!2 y!2 y!2 y!2)))
 (let ((?x1003 (* u!5 u!5 u!5 u!5 v!4 v!4 x!3 x!3 y!2 y!2 y!2 y!2)))
 (let ((?x1672 (* u!5 u!5 u!5 u!5 u!5 v!4 x!3 x!3 y!2 y!2 y!2 y!2)))
 (let ((?x1673 (* u!5 u!5 u!5 u!5 u!5 u!5 x!3 x!3 y!2 y!2 y!2 y!2)))
 (let ((?x636 (* u!5 u!5 u!5 v!4 v!4 v!4 x!3 x!3 x!3 y!2 y!2 y!2)))
 (let ((?x147 (* u!5 u!5 u!5 u!5 v!4 v!4 x!3 x!3 x!3 y!2 y!2 y!2)))
 (let ((?x1676 (* u!5 u!5 u!5 u!5 u!5 v!4 x!3 x!3 x!3 y!2 y!2 y!2)))
 (let ((?x113 (* u!5 u!5 u!5 u!5 u!5 u!5 x!3 x!3 x!3 y!2 y!2 y!2)))
 (let ((?x641 (* u!5 u!5 v!4)))
 (let ((?x639 (* u!5 u!5 v!4 v!4 v!4 x!3 x!3 y!2 y!2)))
 (let ((?x638 (* u!5 v!4 v!4 v!4 x!3 y!2)))
 (let ((?x1701 (+ (* u!5 u!5 u!5 u!5 x!3 y!2) (* 3 (* u!5 u!5 u!5 v!4 x!3 y!2)) (* 3 (* u!5 u!5 v!4 v!4 x!3 y!2)) ?x638 (* (- 1) (* u!5 u!5 u!5 u!5 y!2 y!2)) (* (- 3) (* u!5 u!5 u!5 v!4 y!2 y!2)) (* (- 3) (* u!5 u!5 v!4 v!4 y!2 y!2)) (* (- 1) (* u!5 v!4 v!4 v!4 y!2 y!2)) (* u!5 u!5 u!5 u!5 u!5 x!3 x!3 y!2 y!2) (* 3 (* u!5 u!5 u!5 u!5 v!4 x!3 x!3 y!2 y!2)) (* 3 (* u!5 u!5 u!5 v!4 v!4 x!3 x!3 y!2 y!2)) ?x639 (* (- 2) (* u!5 u!5 u!5 u!5 u!5 x!3 y!2 y!2 y!2)) (* (- 6) (* u!5 u!5 u!5 u!5 v!4 x!3 y!2 y!2 y!2)) (* (- 6) (* u!5 u!5 u!5 v!4 v!4 x!3 y!2 y!2 y!2)) (* (- 2) (* u!5 u!5 v!4 v!4 v!4 x!3 y!2 y!2 y!2)) (* u!5 u!5 u!5 u!5 u!5 y!2 y!2 y!2 y!2) (* 3 (* u!5 u!5 u!5 u!5 v!4 y!2 y!2 y!2 y!2)) (* 3 (* u!5 u!5 u!5 v!4 v!4 y!2 y!2 y!2 y!2)) (* u!5 u!5 v!4 v!4 v!4 y!2 y!2 y!2 y!2) ?x1677 ?x641 ?x113 (* 3 ?x1676) (* 3 ?x147) ?x636 (* (- 3) ?x1673) (* (- 9) ?x1672) (* (- 9) ?x1003) (* (- 3) ?x1669) (* 3 ?x1668) (* 9 ?x1666) (* 9 ?x1688) (* 3 ?x1691) (* (- 1) ?x1687) (* (- 3) ?x1690) (* (- 3) ?x1693) (* (- 1) ?x1697) (* u!5 u!5 u!5 u!5 u!5 y!2) (* 3 (* u!5 u!5 u!5 u!5 v!4 y!2)) (* 3 (* u!5 u!5 u!5 v!4 v!4 y!2)) ?x637)))
 (let ((?x627 (+ (* u!5 x!3) ?x634 ?x851 ?x286)))
 (let ((?x1030 (* v!4 v!4 v!4 v!4 v!4 v!4 x!3 x!3 x!3 x!3 y!2 y!2)))
 (let ((?x2015 (* u!5 v!4 v!4 v!4 v!4 v!4 x!3 x!3 x!3 x!3 y!2 y!2)))
 (let ((?x2011 (* u!5 u!5 v!4 v!4 v!4 v!4 x!3 x!3 x!3 x!3 y!2 y!2)))
 (let ((?x671 (* u!5 u!5 u!5 v!4 v!4 v!4 x!3 x!3 x!3 x!3 y!2 y!2)))
 (let ((?x674 (* v!4 v!4 v!4 v!4 v!4 v!4 x!3 x!3 x!3 x!3 x!3 y!2)))
 (let ((?x669 (* u!5 v!4 v!4 v!4 v!4 v!4 x!3 x!3 x!3 x!3 x!3 y!2)))
 (let ((?x667 (* u!5 u!5 v!4 v!4 v!4 v!4 x!3 x!3 x!3 x!3 x!3 y!2)))
 (let ((?x665 (* u!5 u!5 u!5 v!4 v!4 v!4 x!3 x!3 x!3 x!3 x!3 y!2)))
 (let ((?x662 (* u!5 v!4 v!4 v!4 v!4 v!4 x!3 x!3 x!3 x!3 x!3 x!3)))
 (let ((?x666 (* u!5 u!5 v!4 v!4 v!4 v!4 x!3 x!3 x!3 x!3 x!3 x!3)))
 (let ((?x491 (* u!5 u!5 u!5 v!4 v!4 v!4 x!3 x!3 x!3 x!3 x!3 x!3)))
 (let ((?x661 (* v!4 v!4 v!4 v!4 v!4 v!4 x!3 x!3 x!3 y!2 y!2 y!2)))
 (let ((?x605 (* u!5 v!4 v!4 v!4 v!4 v!4 x!3 x!3 x!3 y!2 y!2 y!2)))
 (let ((?x655 (* u!5 u!5 v!4 v!4 v!4 v!4 x!3 x!3 x!3 y!2 y!2 y!2)))
 (let ((?x780 (+ (* v!4 v!4 v!4 v!4 x!3 y!2) (* (- 1) (* u!5 v!4 v!4 v!4 x!3 x!3)) ?x494 ?x638 ?x639 ?x641 ?x636 ?x637 (* v!4 v!4 v!4 v!4 v!4 x!3 x!3 y!2 y!2) (* 2 (* u!5 v!4 v!4 v!4 v!4 x!3 x!3 y!2 y!2)) (* u!5 u!5 v!4 v!4 v!4 x!3 x!3 x!3 x!3) (* 2 (* u!5 v!4 v!4 v!4 v!4 x!3 x!3 x!3 x!3)) ?x496 (* (- 2) (* u!5 u!5 v!4 v!4 v!4 x!3 x!3 x!3 y!2)) (* (- 4) (* u!5 v!4 v!4 v!4 v!4 x!3 x!3 x!3 y!2)) (* (- 2) (* v!4 v!4 v!4 v!4 v!4 x!3 x!3 x!3 y!2)) (* 2 (* u!5 v!4 v!4)) ?x660 (* 3 ?x655) (* 3 ?x605) ?x661 (* (- 1) ?x491) (* (- 3) ?x666) (* (- 3) ?x662) ?x498 (* 3 ?x665) (* 9 ?x667) (* 9 ?x669) (* 3 ?x674) (* (- 3) ?x671) (* (- 9) ?x2011) (* (- 9) ?x2015) (* (- 3) ?x1030) (* 2 (* u!5 v!4 v!4 v!4 v!4 y!2)) ?x2025 (* (- 1) (* u!5 u!5 v!4 v!4 v!4 x!3)) (* (- 2) (* u!5 v!4 v!4 v!4 v!4 x!3)) ?x797)))
 (let (($x1704 (and (= ?x627 0) (or (not (= (* ?x627 ?x780) 0)) (not (= (* ?x627 ?x1701) 0))))))
 (let (($x717 (exists ((u Int) (v Int) (x Int) (y Int) )(! (let ((?x964 (* u u v v v y)))
 (let ((?x927 (* (- 1) (* u u u v v v y y y y y y))))
 (let ((?x946 (* (- 3) (* u u u u v v y y y y y y))))
 (let ((?x945 (* (- 3) (* u u u u u v y y y y y y))))
 (let ((?x883 (* (- 1) (* u u u u u u y y y y y y))))
 (let ((?x944 (* 3 (* u u u v v v x y y y y y))))
 (let ((?x943 (* 9 (* u u u u v v x y y y y y))))
 (let ((?x942 (* 9 (* u u u u u v x y y y y y))))
 (let ((?x940 (* 3 (* u u u u u u x y y y y y))))
 (let ((?x939 (* (- 3) (* u u u v v v x x y y y y))))
 (let ((?x938 (* (- 9) (* u u u u v v x x y y y y))))
 (let ((?x937 (* (- 9) (* u u u u u v x x y y y y))))
 (let ((?x935 (* (- 3) (* u u u u u u x x y y y y))))
 (let ((?x484 (* u u u v v v x x x y y y)))
 (let ((?x934 (* 3 (* u u u u v v x x x y y y))))
 (let ((?x933 (* 3 (* u u u u u v x x x y y y))))
 (let ((?x468 (* u u v)))
 (let ((?x254 (* u u v v v x x y y)))
 (let ((?x158 (* u v v v x y)))
 (let ((?x993 (+ (* u u u u x y) (* 3 (* u u u v x y)) (* 3 (* u u v v x y)) ?x158 (* (- 1) (* u u u u y y)) (* (- 3) (* u u u v y y)) (* (- 3) (* u u v v y y)) (* (- 1) (* u v v v y y)) (* u u u u u x x y y) (* 3 (* u u u u v x x y y)) (* 3 (* u u u v v x x y y)) ?x254 (* (- 2) (* u u u u u x y y y)) (* (- 6) (* u u u u v x y y y)) (* (- 6) (* u u u v v x y y y)) (* (- 2) (* u u v v v x y y y)) (* u u u u u y y y y) (* 3 (* u u u u v y y y y)) (* 3 (* u u u v v y y y y)) (* u u v v v y y y y) (* u u u) ?x468 (* u u u u u u x x x y y y) ?x933 ?x934 ?x484 ?x935 ?x937 ?x938 ?x939 ?x940 ?x942 ?x943 ?x944 ?x883 ?x945 ?x946 ?x927 (* u u u u u y) (* 3 (* u u u u v y)) (* 3 (* u u u v v y)) ?x964)))
 (let ((?x286 (* (- 1) k!10)))
 (let ((?x851 (* (- 1) k!00)))
 (let ((?x34 (* v y)))
 (let ((?x33 (* u x)))
 (let ((?x349 (+ ?x33 ?x34 ?x851 ?x286)))
 (let ((?x1595 (* (- 3) (* v v v v v v x x x x y y))))
 (let ((?x1594 (* (- 9) (* u v v v v v x x x x y y))))
 (let ((?x1593 (* (- 9) (* u u v v v v x x x x y y))))
 (let ((?x1592 (* (- 3) (* u u u v v v x x x x y y))))
 (let ((?x1591 (* 3 (* v v v v v v x x x x x y))))
 (let ((?x1590 (* 9 (* u v v v v v x x x x x y))))
 (let ((?x1589 (* 9 (* u u v v v v x x x x x y))))
 (let ((?x1588 (* 3 (* u u u v v v x x x x x y))))
 (let ((?x1244 (* (- 1) (* v v v v v v x x x x x x))))
 (let ((?x1587 (* (- 3) (* u v v v v v x x x x x x))))
 (let ((?x1586 (* (- 3) (* u u v v v v x x x x x x))))
 (let ((?x1200 (* (- 1) (* u u u v v v x x x x x x))))
 (let ((?x1597 (* 3 (* u v v v v v x x x y y y))))
 (let ((?x1596 (* 3 (* u u v v v v x x x y y y))))
 (let ((?x1657 (+ (* v v v v x y) (* (- 1) (* u v v v x x)) (* (- 1) (* v v v v x x)) ?x158 ?x254 ?x468 ?x484 ?x964 (* v v v v v x x y y) (* 2 (* u v v v v x x y y)) (* u u v v v x x x x) (* 2 (* u v v v v x x x x)) (* v v v v v x x x x) (* (- 2) (* u u v v v x x x y)) (* (- 4) (* u v v v v x x x y)) (* (- 2) (* v v v v v x x x y)) (* 2 (* u v v)) (* v v v) ?x1596 ?x1597 (* v v v v v v x x x y y y) ?x1200 ?x1586 ?x1587 ?x1244 ?x1588 ?x1589 ?x1590 ?x1591 ?x1592 ?x1593 ?x1594 ?x1595 (* 2 (* u v v v v y)) (* v v v v v y) (* (- 1) (* u u v v v x)) (* (- 2) (* u v v v v x)) (* (- 1) (* v v v v v x)))))
 (and (= ?x349 0) (or (not (= (* ?x349 ?x1657) 0)) (not (= (* ?x349 ?x993) 0)))))))))))))))))))))))))))))))))))))))))))) :qid k!29))
 ))
 (let (($x835 (exists ((u Int) (v Int) (x Int) (y Int) )(! (let ((?x852 (+ x (* (- 1) y))))
 (let ((?x44 (+ v u)))
 (let ((?x258 (+ (* ?x44 ?x44 ?x44 ?x852 y u) (* ?x44 ?x44 ?x44 ?x852 ?x852 y y u u) (* ?x44 u u) (* ?x44 ?x44 ?x44 ?x852 ?x852 ?x852 y y y u u u) (* ?x44 ?x44 ?x44 y u u))))
 (let ((?x286 (* (- 1) k!10)))
 (let ((?x45 (* ?x44 y)))
 (let ((?x327 (* ?x852 u)))
 (let ((?x851 (* (- 1) k!00)))
 (let (($x922 (not (= (* (+ ?x851 ?x327 ?x45 ?x286) ?x258) 0))))
 (let ((?x250 (+ y (* (- 1) x))))
 (let ((?x57 (+ u v)))
 (let ((?x65 (* ?x57 ?x57 v)))
 (let ((?x261 (+ (* ?x57 ?x250 x v v v) (* ?x57 ?x57 ?x250 ?x250 x x v v v) ?x65 (* ?x57 ?x57 ?x57 ?x250 ?x250 ?x250 x x x v v v) (* ?x57 ?x57 ?x250 v v v))))
 (let (($x832 (not (= (* (+ ?x851 (* ?x57 x) (* ?x250 v) ?x286) ?x261) 0))))
 (let ((?x287 (+ k!00 (* (- 1) (* x u)) (* (- 1) (* y v)) k!10)))
 (and (= ?x287 0) (or $x832 $x922)))))))))))))))) :qid k!29))
 ))
 (let ((?x719 (lambda ((u Int) (v Int) (x Int) (y Int) )(let ((?x964 (* u u v v v y)))
 (let ((?x927 (* (- 1) (* u u u v v v y y y y y y))))
 (let ((?x946 (* (- 3) (* u u u u v v y y y y y y))))
 (let ((?x945 (* (- 3) (* u u u u u v y y y y y y))))
 (let ((?x883 (* (- 1) (* u u u u u u y y y y y y))))
 (let ((?x944 (* 3 (* u u u v v v x y y y y y))))
 (let ((?x943 (* 9 (* u u u u v v x y y y y y))))
 (let ((?x942 (* 9 (* u u u u u v x y y y y y))))
 (let ((?x940 (* 3 (* u u u u u u x y y y y y))))
 (let ((?x939 (* (- 3) (* u u u v v v x x y y y y))))
 (let ((?x938 (* (- 9) (* u u u u v v x x y y y y))))
 (let ((?x937 (* (- 9) (* u u u u u v x x y y y y))))
 (let ((?x935 (* (- 3) (* u u u u u u x x y y y y))))
 (let ((?x484 (* u u u v v v x x x y y y)))
 (let ((?x934 (* 3 (* u u u u v v x x x y y y))))
 (let ((?x933 (* 3 (* u u u u u v x x x y y y))))
 (let ((?x468 (* u u v)))
 (let ((?x254 (* u u v v v x x y y)))
 (let ((?x158 (* u v v v x y)))
 (let ((?x993 (+ (* u u u u x y) (* 3 (* u u u v x y)) (* 3 (* u u v v x y)) ?x158 (* (- 1) (* u u u u y y)) (* (- 3) (* u u u v y y)) (* (- 3) (* u u v v y y)) (* (- 1) (* u v v v y y)) (* u u u u u x x y y) (* 3 (* u u u u v x x y y)) (* 3 (* u u u v v x x y y)) ?x254 (* (- 2) (* u u u u u x y y y)) (* (- 6) (* u u u u v x y y y)) (* (- 6) (* u u u v v x y y y)) (* (- 2) (* u u v v v x y y y)) (* u u u u u y y y y) (* 3 (* u u u u v y y y y)) (* 3 (* u u u v v y y y y)) (* u u v v v y y y y) (* u u u) ?x468 (* u u u u u u x x x y y y) ?x933 ?x934 ?x484 ?x935 ?x937 ?x938 ?x939 ?x940 ?x942 ?x943 ?x944 ?x883 ?x945 ?x946 ?x927 (* u u u u u y) (* 3 (* u u u u v y)) (* 3 (* u u u v v y)) ?x964)))
 (let ((?x286 (* (- 1) k!10)))
 (let ((?x851 (* (- 1) k!00)))
 (let ((?x34 (* v y)))
 (let ((?x33 (* u x)))
 (let ((?x349 (+ ?x33 ?x34 ?x851 ?x286)))
 (let ((?x1595 (* (- 3) (* v v v v v v x x x x y y))))
 (let ((?x1594 (* (- 9) (* u v v v v v x x x x y y))))
 (let ((?x1593 (* (- 9) (* u u v v v v x x x x y y))))
 (let ((?x1592 (* (- 3) (* u u u v v v x x x x y y))))
 (let ((?x1591 (* 3 (* v v v v v v x x x x x y))))
 (let ((?x1590 (* 9 (* u v v v v v x x x x x y))))
 (let ((?x1589 (* 9 (* u u v v v v x x x x x y))))
 (let ((?x1588 (* 3 (* u u u v v v x x x x x y))))
 (let ((?x1244 (* (- 1) (* v v v v v v x x x x x x))))
 (let ((?x1587 (* (- 3) (* u v v v v v x x x x x x))))
 (let ((?x1586 (* (- 3) (* u u v v v v x x x x x x))))
 (let ((?x1200 (* (- 1) (* u u u v v v x x x x x x))))
 (let ((?x1597 (* 3 (* u v v v v v x x x y y y))))
 (let ((?x1596 (* 3 (* u u v v v v x x x y y y))))
 (let ((?x1657 (+ (* v v v v x y) (* (- 1) (* u v v v x x)) (* (- 1) (* v v v v x x)) ?x158 ?x254 ?x468 ?x484 ?x964 (* v v v v v x x y y) (* 2 (* u v v v v x x y y)) (* u u v v v x x x x) (* 2 (* u v v v v x x x x)) (* v v v v v x x x x) (* (- 2) (* u u v v v x x x y)) (* (- 4) (* u v v v v x x x y)) (* (- 2) (* v v v v v x x x y)) (* 2 (* u v v)) (* v v v) ?x1596 ?x1597 (* v v v v v v x x x y y y) ?x1200 ?x1586 ?x1587 ?x1244 ?x1588 ?x1589 ?x1590 ?x1591 ?x1592 ?x1593 ?x1594 ?x1595 (* 2 (* u v v v v y)) (* v v v v v y) (* (- 1) (* u u v v v x)) (* (- 2) (* u v v v v x)) (* (- 1) (* v v v v v x)))))
 (let (($x715 (and (= ?x349 0) (or (not (= (* ?x349 ?x1657) 0)) (not (= (* ?x349 ?x993) 0))))))
 (let ((?x852 (+ x (* (- 1) y))))
 (let ((?x44 (+ v u)))
 (let ((?x258 (+ (* ?x44 ?x44 ?x44 ?x852 y u) (* ?x44 ?x44 ?x44 ?x852 ?x852 y y u u) (* ?x44 u u) (* ?x44 ?x44 ?x44 ?x852 ?x852 ?x852 y y y u u u) (* ?x44 ?x44 ?x44 y u u))))
 (let (($x922 (not (= (* (+ ?x851 (* ?x852 u) (* ?x44 y) ?x286) ?x258) 0))))
 (let ((?x250 (+ y (* (- 1) x))))
 (let ((?x57 (+ u v)))
 (let ((?x65 (* ?x57 ?x57 v)))
 (let ((?x261 (+ (* ?x57 ?x250 x v v v) (* ?x57 ?x57 ?x250 ?x250 x x v v v) ?x65 (* ?x57 ?x57 ?x57 ?x250 ?x250 ?x250 x x x v v v) (* ?x57 ?x57 ?x250 v v v))))
 (let (($x832 (not (= (* (+ ?x851 (* ?x57 x) (* ?x250 v) ?x286) ?x261) 0))))
 (let ((?x287 (+ k!00 (* (- 1) (* x u)) (* (- 1) (* y v)) k!10)))
 (let (($x1544 (and (= ?x287 0) (or $x832 $x922))))
 (rewrite (= $x1544 $x715)))))))))))))))))))))))))))))))))))))))))))))))))))))))
 ))
 (let (($x335 (exists ((u Int) (v Int) (x Int) (y Int) )(! (let ((?x250 (+ y (* (- 1) x))))
 (let ((?x57 (+ u v)))
 (let ((?x65 (* ?x57 ?x57 v)))
 (let ((?x261 (+ (* ?x57 ?x250 x v v v) (* ?x57 ?x57 ?x250 ?x250 x x v v v) ?x65 (* ?x57 ?x57 ?x57 ?x250 ?x250 ?x250 x x x v v v) (* ?x57 ?x57 ?x250 v v v))))
 (let ((?x286 (* (- 1) k!10)))
 (let ((?x284 (* ?x250 v)))
 (let ((?x58 (* ?x57 x)))
 (let ((?x851 (* (- 1) k!00)))
 (let (($x832 (not (= (* (+ ?x851 ?x58 ?x284 ?x286) ?x261) 0))))
 (let ((?x852 (+ x (* (- 1) y))))
 (let ((?x44 (+ v u)))
 (let ((?x258 (+ (* ?x44 ?x44 ?x44 ?x852 y u) (* ?x44 ?x44 ?x44 ?x852 ?x852 y y u u) (* ?x44 u u) (* ?x44 ?x44 ?x44 ?x852 ?x852 ?x852 y y y u u u) (* ?x44 ?x44 ?x44 y u u))))
 (let (($x922 (not (= (* (+ ?x851 (* ?x852 u) (* ?x44 y) ?x286) ?x258) 0))))
 (and (= (+ ?x851 (* x u) (* y v) ?x286) 0) (or $x922 $x832))))))))))))))) :qid k!29))
 ))
 (let ((?x836 (lambda ((u Int) (v Int) (x Int) (y Int) )(let ((?x852 (+ x (* (- 1) y))))
 (let ((?x44 (+ v u)))
 (let ((?x258 (+ (* ?x44 ?x44 ?x44 ?x852 y u) (* ?x44 ?x44 ?x44 ?x852 ?x852 y y u u) (* ?x44 u u) (* ?x44 ?x44 ?x44 ?x852 ?x852 ?x852 y y y u u u) (* ?x44 ?x44 ?x44 y u u))))
 (let ((?x286 (* (- 1) k!10)))
 (let ((?x45 (* ?x44 y)))
 (let ((?x327 (* ?x852 u)))
 (let ((?x851 (* (- 1) k!00)))
 (let (($x922 (not (= (* (+ ?x851 ?x327 ?x45 ?x286) ?x258) 0))))
 (let ((?x250 (+ y (* (- 1) x))))
 (let ((?x57 (+ u v)))
 (let ((?x65 (* ?x57 ?x57 v)))
 (let ((?x261 (+ (* ?x57 ?x250 x v v v) (* ?x57 ?x57 ?x250 ?x250 x x v v v) ?x65 (* ?x57 ?x57 ?x57 ?x250 ?x250 ?x250 x x x v v v) (* ?x57 ?x57 ?x250 v v v))))
 (let (($x832 (not (= (* (+ ?x851 (* ?x57 x) (* ?x250 v) ?x286) ?x261) 0))))
 (let ((?x287 (+ k!00 (* (- 1) (* x u)) (* (- 1) (* y v)) k!10)))
 (let (($x1544 (and (= ?x287 0) (or $x832 $x922))))
 (let (($x297 (and (= (+ ?x851 (* x u) (* y v) ?x286) 0) (or $x922 $x832))))
 (rewrite (= $x297 $x1544)))))))))))))))))))
 ))
 (let (($x308 (exists ((u Int) (v Int) (x Int) (y Int) )(! (let ((?x250 (+ y (* (- 1) x))))
 (let ((?x57 (+ u v)))
 (let ((?x65 (* ?x57 ?x57 v)))
 (let ((?x261 (+ (* ?x57 ?x250 x v v v) (* ?x57 ?x57 ?x250 ?x250 x x v v v) ?x65 (* ?x57 ?x57 ?x57 ?x250 ?x250 ?x250 x x x v v v) (* ?x57 ?x57 ?x250 v v v))))
 (let ((?x38 (* v00 y00)))
 (let ((?x99 (* (- 1) ?x38)))
 (let ((?x284 (* ?x250 v)))
 (let ((?x58 (* ?x57 x)))
 (let ((?x83 (* (- 1) (* u00 x00))))
 (let ((?x852 (+ x (* (- 1) y))))
 (let ((?x44 (+ v u)))
 (let ((?x258 (+ (* ?x44 ?x44 ?x44 ?x852 y u) (* ?x44 ?x44 ?x44 ?x852 ?x852 y y u u) (* ?x44 u u) (* ?x44 ?x44 ?x44 ?x852 ?x852 ?x852 y y y u u u) (* ?x44 ?x44 ?x44 y u u))))
 (let (($x348 (or (not (= (* (+ ?x83 (* ?x852 u) (* ?x44 y) ?x99) ?x258) 0)) (not (= (* (+ ?x83 ?x58 ?x284 ?x99) ?x261) 0)))))
 (and (= (+ ?x83 (* x u) (* y v) ?x99) 0) $x348)))))))))))))) :qid k!29))
 ))
 (let ((?x342 (lambda ((u Int) (v Int) (x Int) (y Int) )(let ((?x250 (+ y (* (- 1) x))))
 (let ((?x57 (+ u v)))
 (let ((?x65 (* ?x57 ?x57 v)))
 (let ((?x261 (+ (* ?x57 ?x250 x v v v) (* ?x57 ?x57 ?x250 ?x250 x x v v v) ?x65 (* ?x57 ?x57 ?x57 ?x250 ?x250 ?x250 x x x v v v) (* ?x57 ?x57 ?x250 v v v))))
 (let ((?x286 (* (- 1) k!10)))
 (let ((?x284 (* ?x250 v)))
 (let ((?x58 (* ?x57 x)))
 (let ((?x851 (* (- 1) k!00)))
 (let (($x832 (not (= (* (+ ?x851 ?x58 ?x284 ?x286) ?x261) 0))))
 (let ((?x852 (+ x (* (- 1) y))))
 (let ((?x44 (+ v u)))
 (let ((?x258 (+ (* ?x44 ?x44 ?x44 ?x852 y u) (* ?x44 ?x44 ?x44 ?x852 ?x852 y y u u) (* ?x44 u u) (* ?x44 ?x44 ?x44 ?x852 ?x852 ?x852 y y y u u u) (* ?x44 ?x44 ?x44 y u u))))
 (let (($x922 (not (= (* (+ ?x851 (* ?x852 u) (* ?x44 y) ?x286) ?x258) 0))))
 (let (($x297 (and (= (+ ?x851 (* x u) (* y v) ?x286) 0) (or $x922 $x832))))
 (let ((?x338 (* (+ (* (- 1) (* u00 x00)) ?x58 ?x284 (* (- 1) (* v00 y00))) ?x261)))
 (let ((?x38 (* v00 y00)))
 (let ((?x99 (* (- 1) ?x38)))
 (let ((?x45 (* ?x44 y)))
 (let ((?x327 (* ?x852 u)))
 (let ((?x83 (* (- 1) (* u00 x00))))
 (let (($x348 (or (not (= (* (+ ?x83 ?x327 ?x45 ?x99) ?x258) 0)) (not (= ?x338 0)))))
 (let (($x291 (and (= (+ ?x83 (* x u) (* y v) ?x99) 0) $x348)))
 (rewrite (= $x291 $x297)))))))))))))))))))))))))
 ))
 (let (($x74 (exists ((u Int) (v Int) (x Int) (y Int) )(! (let ((?x59 (- y x)))
 (let ((?x57 (+ u v)))
 (let ((?x65 (* ?x57 ?x57 v)))
 (let ((?x68 (+ (* ?x57 v v v x ?x59) (* ?x57 ?x57 v v v x x ?x59 ?x59) ?x65 (* ?x57 ?x57 ?x57 v v v x x x ?x59 ?x59 ?x59) (* ?x57 ?x57 v v v ?x59))))
 (let ((?x38 (* v00 y00)))
 (let ((?x69 (* (- (+ (* (- 1) u00 x00) (* ?x57 x) (* v ?x59)) ?x38) ?x68)))
 (let ((?x42 (- x y)))
 (let ((?x44 (+ v u)))
 (let ((?x53 (+ (* u ?x44 ?x44 ?x44 ?x42 y) (* u u ?x44 ?x44 ?x44 ?x42 ?x42 y y) (* u u ?x44) (* u u u ?x44 ?x44 ?x44 ?x42 ?x42 ?x42 y y y) (* u u ?x44 ?x44 ?x44 y))))
 (let ((?x54 (* (- (+ (* (- 1) u00 x00) (* u ?x42) (* ?x44 y)) ?x38) ?x53)))
 (let (($x41 (= (- (+ (* (- 1) u00 x00) (* u x) (* v y)) ?x38) 0)))
 (and $x41 (or (not (= ?x54 0)) (not (= ?x69 0))))))))))))))) :qid k!29))
 ))
 (let ((?x1288 (lambda ((u Int) (v Int) (x Int) (y Int) )(let ((?x250 (+ y (* (- 1) x))))
 (let ((?x57 (+ u v)))
 (let ((?x65 (* ?x57 ?x57 v)))
 (let ((?x261 (+ (* ?x57 ?x250 x v v v) (* ?x57 ?x57 ?x250 ?x250 x x v v v) ?x65 (* ?x57 ?x57 ?x57 ?x250 ?x250 ?x250 x x x v v v) (* ?x57 ?x57 ?x250 v v v))))
 (let ((?x38 (* v00 y00)))
 (let ((?x99 (* (- 1) ?x38)))
 (let ((?x284 (* ?x250 v)))
 (let ((?x58 (* ?x57 x)))
 (let ((?x83 (* (- 1) (* u00 x00))))
 (let ((?x852 (+ x (* (- 1) y))))
 (let ((?x44 (+ v u)))
 (let ((?x258 (+ (* ?x44 ?x44 ?x44 ?x852 y u) (* ?x44 ?x44 ?x44 ?x852 ?x852 y y u u) (* ?x44 u u) (* ?x44 ?x44 ?x44 ?x852 ?x852 ?x852 y y y u u u) (* ?x44 ?x44 ?x44 y u u))))
 (let (($x348 (or (not (= (* (+ ?x83 (* ?x852 u) (* ?x44 y) ?x99) ?x258) 0)) (not (= (* (+ ?x83 ?x58 ?x284 ?x99) ?x261) 0)))))
 (let (($x291 (and (= (+ ?x83 (* x u) (* y v) ?x99) 0) $x348)))
 (let ((?x59 (- y x)))
 (let ((?x68 (+ (* ?x57 v v v x ?x59) (* ?x57 ?x57 v v v x x ?x59 ?x59) ?x65 (* ?x57 ?x57 ?x57 v v v x x x ?x59 ?x59 ?x59) (* ?x57 ?x57 v v v ?x59))))
 (let (($x70 (= (* (- (+ (* (- 1) u00 x00) ?x58 (* v ?x59)) ?x38) ?x68) 0)))
 (let ((?x42 (- x y)))
 (let ((?x53 (+ (* u ?x44 ?x44 ?x44 ?x42 y) (* u u ?x44 ?x44 ?x44 ?x42 ?x42 y y) (* u u ?x44) (* u u u ?x44 ?x44 ?x44 ?x42 ?x42 ?x42 y y y) (* u u ?x44 ?x44 ?x44 y))))
 (let ((?x54 (* (- (+ (* (- 1) u00 x00) (* u ?x42) (* ?x44 y)) ?x38) ?x53)))
 (let (($x41 (= (- (+ (* (- 1) u00 x00) (* u x) (* v y)) ?x38) 0)))
 (let (($x73 (and $x41 (or (not (= ?x54 0)) (not $x70)))))
 (rewrite (= $x73 $x291)))))))))))))))))))))))))
 ))
 (let ((@x75 (asserted $x74)))
 (let ((@x344 (mp (mp @x75 (quant-intro (proof-bind ?x1288) (= $x74 $x308)) $x308) (rewrite (= $x308 $x308)) $x308)))
 (let ((@x1380 (mp (mp @x344 (quant-intro (proof-bind ?x342) (= $x308 $x335)) $x335) (quant-intro (proof-bind ?x836) (= $x335 $x835)) $x835)))
 (let ((@x1707 (mp~ (mp @x1380 (quant-intro (proof-bind ?x719) (= $x835 $x717)) $x717) (sk (~ $x717 $x1704)) $x1704)))
 (let ((@x1762 (mp @x1707 (rewrite (= $x1704 $x1948)) $x1948)))
 (let ((@x1774 (and-elim @x1762 $x1724)))
 (let ((@x1711 (unit-resolution ((_ th-lemma arith triangle-eq) (or (not $x1724) $x1746)) @x1774 $x1746)))
 (let (($x1745 (<= ?x1114 0)))
 (let ((@x1712 (unit-resolution ((_ th-lemma arith triangle-eq) (or (not $x1724) $x1745)) @x1774 $x1745)))
 (let (($x1773 (not (<= ?x1928 0))))
 (let (($x1127 (>= ?x1928 0)))
 (let (($x1743 (>= ?x1617 0)))
 (let (($x1742 (<= ?x1617 0)))
 (let ((@x1793 (unit-resolution ((_ th-lemma arith triangle-eq) (or $x1729 (not $x1742) (not $x1743))) (lemma ((_ th-lemma arith farkas 1 1 1) (hypothesis (not $x1742)) @x1712 @x1711 false) $x1742) (lemma ((_ th-lemma arith farkas 1 1 1) (hypothesis (not $x1743)) @x1712 @x1711 false) $x1743) $x1729)))
 (let ((@x1804 (unit-resolution ((_ th-lemma arith triangle-eq) (or $x1741 $x1773 (not $x1127))) (unit-resolution (and-elim @x1762 $x1736) @x1793 $x1929) (lemma ((_ th-lemma arith farkas 1 1 1) (hypothesis (not $x1127)) @x1712 @x1711 false) $x1127) $x1773)))
 ((_ th-lemma arith farkas 1 1 1) @x1804 @x1712 @x1711 false))))))))))))))))))))))))))))))))))))))))))))))))))))))))))))))))))))))))))))))))))))))))))))))))))))))))))))))))))))))))))))

(:added-eqs                 2
 :arith-assert-diseq        6
 :arith-assert-lower        56
 :arith-assert-upper        14
 :arith-conflicts           4
 :arith-eq-adapter          3
 :arith-fixed-eqs           5
 :arith-max-min             680
 :arith-nonlinear-bounds    39
 :arith-num-rows            4
 :arith-pivots              1
 :arith-pseudo-nonlinear    8
 :arith-row-summations      1
 :arith-tableau-max-columns 98
 :arith-tableau-max-rows    4
 :conflicts                 4
 :decisions                 6
 :del-clause                12
 :eliminated-applications   2
 :final-checks              4
 :max-memory                3.87
 :memory                    3.30
 :mk-bool-var               15
 :mk-clause                 12
 :num-allocs                1259997
 :num-checks                1
 :propagations              14
 :rlimit-count              8310
 :time                      0.01
 :total-time                0.02)
